c Output file
c MobilePhone 1
c Calls 2
c GPS 3
c Screen 4
c Media 5
c Basic 6
c Color 7
c HighResolution 8
c Camera 9
c MP3 10
p cnf 10 20
1 0
1 -2 0
2 -1 0
1 -3 0
4 -6 0
4 -7 0
4 -8 0
6 7 8 -4 0
-6 -7 0
-6 -8 0
-7 -8 0
1 -4 0
4 -1 0
5 -9 0
5 -10 0
9 10 -5 0
1 -5 0
-3 -8 0
-8 -3 0
-9 8 0